nN = 8;
nR = 32;
nH = 1;

a = [[17, 18, 21, 22, 19, 25, 21, 18, 16, 23, 15, 19, 23, 17, 15, 23, 20, 15, 17, 21, 25, 16, 15, 15, 22, 20, 20, 21, 25, 20, 18, 24], [17, 22, 23, 17, 24, 25, 21, 16, 20, 23, 22, 18, 15, 24, 19, 25, 16, 19, 18, 21, 21, 15, 25, 20, 15, 25, 23, 19, 19, 25, 19, 21], [20, 19, 19, 24, 17, 24, 21, 19, 17, 15, 18, 16, 19, 18, 15, 21, 18, 18, 24, 23, 15, 24, 18, 22, 17, 20, 23, 17, 17, 17, 24, 22], [21, 17, 21, 20, 16, 22, 22, 23, 17, 25, 23, 25, 16, 21, 24, 25, 25, 18, 16, 23, 22, 22, 18, 15, 16, 25, 21, 18, 18, 22, 17, 17], [25, 20, 17, 19, 24, 22, 18, 16, 18, 15, 25, 20, 24, 20, 20, 16, 19, 23, 15, 19, 19, 21, 24, 24, 23, 22, 25, 23, 23, 21, 20, 22], [15, 15, 15, 21, 24, 16, 20, 19, 19, 24, 18, 20, 17, 24, 21, 23, 23, 22, 19, 17, 15, 19, 20, 17, 15, 17, 18, 20, 18, 22, 16, 25], [25, 18, 21, 23, 16, 18, 19, 24, 16, 23, 20, 18, 25, 24, 25, 16, 18, 16, 17, 19, 25, 20, 16, 24, 15, 25, 23, 25, 16, 18, 19, 18], [15, 20, 24, 20, 17, 15, 21, 25, 15, 22, 25, 23, 15, 19, 20, 24, 22, 25, 16, 18, 21, 23, 23, 18, 20, 23, 20, 15, 19, 23, 22, 18]];
c = [[[0, 0, 0, 0, 0, 0, 0, 0, 0, 0, 0, 0, 0, 0, 0, 0, 0, 0, 0, 0, 0, 0, 0, 0, 0, 0, 0, 0, 0, 0, 0, 0], [44, 38, 50, 40, 32, 46, 45, 43, 41, 30, 49, 32, 43, 31, 35, 42, 42, 31, 36, 31, 34, 40, 33, 43, 39, 46, 41, 30, 36, 50, 49, 40], [45, 38, 36, 31, 36, 38, 34, 30, 36, 30, 39, 33, 30, 35, 44, 37, 30, 42, 42, 50, 46, 30, 41, 36, 39, 35, 31, 37, 30, 30, 31, 41], [40, 41, 42, 33, 33, 44, 46, 50, 42, 45, 46, 40, 34, 35, 43, 35, 43, 35, 33, 50, 38, 35, 50, 30, 30, 42, 45, 35, 45, 33, 41, 50], [41, 39, 38, 33, 38, 34, 36, 49, 43, 41, 43, 38, 43, 48, 41, 37, 38, 35, 41, 37, 39, 40, 33, 48, 45, 47, 31, 34, 36, 48, 36, 31], [30, 37, 36, 50, 38, 44, 40, 43, 32, 42, 33, 43, 33, 36, 33, 46, 46, 35, 41, 48, 48, 36, 43, 31, 47, 35, 49, 39, 36, 36, 49, 43], [41, 31, 36, 35, 38, 34, 35, 48, 47, 49, 32, 38, 46, 47, 45, 48, 35, 37, 50, 44, 43, 33, 45, 46, 46, 30, 46, 48, 45, 48, 34, 45], [44, 44, 32, 35, 39, 38, 49, 41, 30, 48, 31, 45, 39, 49, 31, 36, 40, 32, 34, 39, 30, 39, 43, 43, 35, 33, 48, 48, 38, 32, 48, 34]], [[0, 0, 0, 0, 0, 0, 0, 0, 0, 0, 0, 0, 0, 0, 0, 0, 0, 0, 0, 0, 0, 0, 0, 0, 0, 0, 0, 0, 0, 0, 0, 0], [0, 0, 0, 0, 0, 0, 0, 0, 0, 0, 0, 0, 0, 0, 0, 0, 0, 0, 0, 0, 0, 0, 0, 0, 0, 0, 0, 0, 0, 0, 0, 0], [30, 34, 50, 31, 39, 50, 41, 42, 42, 46, 45, 38, 45, 48, 32, 42, 46, 45, 50, 40, 46, 49, 49, 47, 50, 43, 45, 42, 50, 49, 48, 31], [44, 44, 33, 38, 37, 47, 35, 39, 42, 40, 48, 49, 43, 50, 43, 41, 39, 42, 30, 46, 46, 39, 44, 46, 38, 30, 35, 49, 45, 42, 35, 34], [38, 35, 34, 50, 50, 48, 33, 49, 49, 38, 48, 43, 35, 36, 50, 39, 39, 32, 47, 30, 35, 34, 43, 48, 45, 37, 49, 39, 48, 50, 46, 31], [39, 41, 30, 48, 47, 42, 39, 42, 30, 41, 36, 40, 40, 44, 31, 36, 31, 43, 49, 44, 38, 34, 46, 46, 39, 43, 48, 37, 37, 32, 46, 35], [42, 31, 41, 30, 41, 31, 46, 46, 46, 42, 33, 50, 42, 41, 50, 40, 33, 41, 37, 50, 49, 50, 30, 42, 48, 48, 34, 45, 40, 45, 46, 35], [46, 46, 45, 38, 39, 48, 49, 40, 49, 30, 43, 50, 49, 44, 47, 43, 38, 32, 36, 35, 48, 45, 31, 36, 34, 49, 50, 50, 47, 33, 48, 50]], [[0, 0, 0, 0, 0, 0, 0, 0, 0, 0, 0, 0, 0, 0, 0, 0, 0, 0, 0, 0, 0, 0, 0, 0, 0, 0, 0, 0, 0, 0, 0, 0], [0, 0, 0, 0, 0, 0, 0, 0, 0, 0, 0, 0, 0, 0, 0, 0, 0, 0, 0, 0, 0, 0, 0, 0, 0, 0, 0, 0, 0, 0, 0, 0], [0, 0, 0, 0, 0, 0, 0, 0, 0, 0, 0, 0, 0, 0, 0, 0, 0, 0, 0, 0, 0, 0, 0, 0, 0, 0, 0, 0, 0, 0, 0, 0], [45, 48, 48, 48, 39, 38, 38, 44, 37, 34, 39, 44, 34, 34, 38, 32, 50, 47, 43, 40, 31, 38, 44, 32, 30, 42, 30, 37, 40, 44, 48, 49], [50, 40, 37, 30, 47, 32, 39, 36, 46, 33, 32, 37, 42, 50, 41, 45, 43, 47, 30, 33, 40, 33, 41, 47, 48, 48, 42, 41, 48, 39, 47, 44], [47, 33, 44, 44, 43, 42, 33, 50, 34, 35, 40, 43, 33, 41, 30, 43, 49, 34, 32, 37, 33, 43, 47, 47, 46, 30, 37, 36, 40, 44, 30, 30], [31, 38, 31, 38, 44, 48, 48, 37, 34, 30, 31, 48, 37, 43, 39, 37, 40, 35, 48, 44, 32, 43, 33, 47, 44, 36, 35, 33, 35, 43, 35, 40], [37, 34, 39, 32, 42, 42, 45, 36, 37, 44, 37, 43, 41, 41, 46, 37, 46, 34, 47, 40, 38, 41, 42, 49, 46, 43, 31, 32, 41, 33, 31, 46]], [[0, 0, 0, 0, 0, 0, 0, 0, 0, 0, 0, 0, 0, 0, 0, 0, 0, 0, 0, 0, 0, 0, 0, 0, 0, 0, 0, 0, 0, 0, 0, 0], [0, 0, 0, 0, 0, 0, 0, 0, 0, 0, 0, 0, 0, 0, 0, 0, 0, 0, 0, 0, 0, 0, 0, 0, 0, 0, 0, 0, 0, 0, 0, 0], [0, 0, 0, 0, 0, 0, 0, 0, 0, 0, 0, 0, 0, 0, 0, 0, 0, 0, 0, 0, 0, 0, 0, 0, 0, 0, 0, 0, 0, 0, 0, 0], [0, 0, 0, 0, 0, 0, 0, 0, 0, 0, 0, 0, 0, 0, 0, 0, 0, 0, 0, 0, 0, 0, 0, 0, 0, 0, 0, 0, 0, 0, 0, 0], [33, 32, 44, 33, 31, 45, 49, 48, 50, 35, 40, 39, 47, 36, 44, 47, 43, 43, 48, 41, 39, 32, 40, 49, 40, 34, 30, 34, 38, 31, 50, 42], [43, 42, 31, 44, 50, 41, 33, 37, 36, 34, 33, 50, 46, 49, 36, 32, 46, 40, 47, 38, 45, 37, 41, 34, 31, 33, 41, 30, 34, 48, 37, 31], [34, 47, 31, 35, 41, 42, 33, 39, 46, 42, 42, 42, 43, 48, 31, 48, 43, 49, 33, 47, 38, 37, 35, 38, 30, 48, 40, 31, 39, 48, 35, 49], [42, 36, 49, 39, 49, 48, 36, 42, 45, 45, 43, 39, 41, 38, 31, 36, 45, 48, 35, 49, 44, 47, 39, 40, 47, 35, 35, 40, 36, 38, 40, 44]], [[0, 0, 0, 0, 0, 0, 0, 0, 0, 0, 0, 0, 0, 0, 0, 0, 0, 0, 0, 0, 0, 0, 0, 0, 0, 0, 0, 0, 0, 0, 0, 0], [0, 0, 0, 0, 0, 0, 0, 0, 0, 0, 0, 0, 0, 0, 0, 0, 0, 0, 0, 0, 0, 0, 0, 0, 0, 0, 0, 0, 0, 0, 0, 0], [0, 0, 0, 0, 0, 0, 0, 0, 0, 0, 0, 0, 0, 0, 0, 0, 0, 0, 0, 0, 0, 0, 0, 0, 0, 0, 0, 0, 0, 0, 0, 0], [0, 0, 0, 0, 0, 0, 0, 0, 0, 0, 0, 0, 0, 0, 0, 0, 0, 0, 0, 0, 0, 0, 0, 0, 0, 0, 0, 0, 0, 0, 0, 0], [0, 0, 0, 0, 0, 0, 0, 0, 0, 0, 0, 0, 0, 0, 0, 0, 0, 0, 0, 0, 0, 0, 0, 0, 0, 0, 0, 0, 0, 0, 0, 0], [47, 40, 31, 48, 30, 40, 46, 33, 31, 45, 30, 43, 39, 41, 33, 43, 47, 45, 37, 37, 34, 35, 50, 43, 46, 31, 30, 34, 39, 36, 38, 48], [39, 42, 37, 41, 42, 40, 43, 32, 42, 31, 48, 49, 47, 34, 38, 44, 36, 42, 48, 49, 37, 44, 46, 33, 39, 30, 48, 35, 44, 33, 50, 31], [43, 30, 48, 50, 42, 38, 46, 40, 50, 33, 32, 30, 48, 42, 40, 46, 47, 32, 49, 30, 45, 35, 38, 40, 50, 44, 35, 48, 50, 43, 44, 44]], [[0, 0, 0, 0, 0, 0, 0, 0, 0, 0, 0, 0, 0, 0, 0, 0, 0, 0, 0, 0, 0, 0, 0, 0, 0, 0, 0, 0, 0, 0, 0, 0], [0, 0, 0, 0, 0, 0, 0, 0, 0, 0, 0, 0, 0, 0, 0, 0, 0, 0, 0, 0, 0, 0, 0, 0, 0, 0, 0, 0, 0, 0, 0, 0], [0, 0, 0, 0, 0, 0, 0, 0, 0, 0, 0, 0, 0, 0, 0, 0, 0, 0, 0, 0, 0, 0, 0, 0, 0, 0, 0, 0, 0, 0, 0, 0], [0, 0, 0, 0, 0, 0, 0, 0, 0, 0, 0, 0, 0, 0, 0, 0, 0, 0, 0, 0, 0, 0, 0, 0, 0, 0, 0, 0, 0, 0, 0, 0], [0, 0, 0, 0, 0, 0, 0, 0, 0, 0, 0, 0, 0, 0, 0, 0, 0, 0, 0, 0, 0, 0, 0, 0, 0, 0, 0, 0, 0, 0, 0, 0], [0, 0, 0, 0, 0, 0, 0, 0, 0, 0, 0, 0, 0, 0, 0, 0, 0, 0, 0, 0, 0, 0, 0, 0, 0, 0, 0, 0, 0, 0, 0, 0], [30, 49, 41, 38, 39, 41, 50, 49, 50, 42, 45, 31, 38, 47, 49, 35, 45, 46, 40, 43, 48, 39, 31, 34, 48, 48, 35, 44, 43, 49, 37, 35], [42, 40, 50, 46, 40, 42, 41, 39, 42, 31, 39, 30, 41, 31, 38, 34, 30, 36, 32, 31, 50, 44, 36, 39, 45, 40, 34, 34, 47, 43, 31, 38]], [[0, 0, 0, 0, 0, 0, 0, 0, 0, 0, 0, 0, 0, 0, 0, 0, 0, 0, 0, 0, 0, 0, 0, 0, 0, 0, 0, 0, 0, 0, 0, 0], [0, 0, 0, 0, 0, 0, 0, 0, 0, 0, 0, 0, 0, 0, 0, 0, 0, 0, 0, 0, 0, 0, 0, 0, 0, 0, 0, 0, 0, 0, 0, 0], [0, 0, 0, 0, 0, 0, 0, 0, 0, 0, 0, 0, 0, 0, 0, 0, 0, 0, 0, 0, 0, 0, 0, 0, 0, 0, 0, 0, 0, 0, 0, 0], [0, 0, 0, 0, 0, 0, 0, 0, 0, 0, 0, 0, 0, 0, 0, 0, 0, 0, 0, 0, 0, 0, 0, 0, 0, 0, 0, 0, 0, 0, 0, 0], [0, 0, 0, 0, 0, 0, 0, 0, 0, 0, 0, 0, 0, 0, 0, 0, 0, 0, 0, 0, 0, 0, 0, 0, 0, 0, 0, 0, 0, 0, 0, 0], [0, 0, 0, 0, 0, 0, 0, 0, 0, 0, 0, 0, 0, 0, 0, 0, 0, 0, 0, 0, 0, 0, 0, 0, 0, 0, 0, 0, 0, 0, 0, 0], [0, 0, 0, 0, 0, 0, 0, 0, 0, 0, 0, 0, 0, 0, 0, 0, 0, 0, 0, 0, 0, 0, 0, 0, 0, 0, 0, 0, 0, 0, 0, 0], [43, 48, 46, 41, 43, 38, 43, 50, 42, 49, 41, 31, 40, 45, 42, 49, 39, 42, 34, 43, 38, 39, 41, 32, 42, 35, 44, 44, 40, 43, 39, 34]], [[0, 0, 0, 0, 0, 0, 0, 0, 0, 0, 0, 0, 0, 0, 0, 0, 0, 0, 0, 0, 0, 0, 0, 0, 0, 0, 0, 0, 0, 0, 0, 0], [0, 0, 0, 0, 0, 0, 0, 0, 0, 0, 0, 0, 0, 0, 0, 0, 0, 0, 0, 0, 0, 0, 0, 0, 0, 0, 0, 0, 0, 0, 0, 0], [0, 0, 0, 0, 0, 0, 0, 0, 0, 0, 0, 0, 0, 0, 0, 0, 0, 0, 0, 0, 0, 0, 0, 0, 0, 0, 0, 0, 0, 0, 0, 0], [0, 0, 0, 0, 0, 0, 0, 0, 0, 0, 0, 0, 0, 0, 0, 0, 0, 0, 0, 0, 0, 0, 0, 0, 0, 0, 0, 0, 0, 0, 0, 0], [0, 0, 0, 0, 0, 0, 0, 0, 0, 0, 0, 0, 0, 0, 0, 0, 0, 0, 0, 0, 0, 0, 0, 0, 0, 0, 0, 0, 0, 0, 0, 0], [0, 0, 0, 0, 0, 0, 0, 0, 0, 0, 0, 0, 0, 0, 0, 0, 0, 0, 0, 0, 0, 0, 0, 0, 0, 0, 0, 0, 0, 0, 0, 0], [0, 0, 0, 0, 0, 0, 0, 0, 0, 0, 0, 0, 0, 0, 0, 0, 0, 0, 0, 0, 0, 0, 0, 0, 0, 0, 0, 0, 0, 0, 0, 0], [0, 0, 0, 0, 0, 0, 0, 0, 0, 0, 0, 0, 0, 0, 0, 0, 0, 0, 0, 0, 0, 0, 0, 0, 0, 0, 0, 0, 0, 0, 0, 0]]];

q = [[[15], [5], [24], [5], [15], [11], [10], [6], [25], [19], [8], [10], [14], [22], [17], [8], [19], [20], [8], [8], [22], [12], [12], [18], [15], [17], [9], [14], [9], [11], [9], [25]], [[24], [11], [18], [21], [25], [15], [9], [22], [11], [25], [16], [23], [25], [16], [16], [6], [12], [5], [22], [15], [19], [25], [13], [18], [25], [22], [18], [11], [17], [12], [15], [11]], [[12], [21], [14], [8], [25], [6], [18], [18], [20], [18], [8], [11], [11], [20], [16], [24], [13], [23], [7], [22], [12], [24], [13], [7], [10], [8], [22], [22], [22], [24], [20], [13]], [[23], [5], [9], [6], [11], [8], [18], [19], [21], [8], [7], [14], [11], [12], [24], [7], [21], [6], [14], [12], [13], [5], [22], [25], [20], [9], [8], [5], [10], [13], [17], [5]], [[7], [10], [21], [12], [18], [6], [20], [13], [10], [11], [9], [18], [7], [21], [6], [19], [7], [11], [12], [10], [14], [12], [21], [10], [19], [21], [25], [8], [18], [18], [18], [19]], [[14], [18], [15], [23], [17], [8], [25], [14], [24], [9], [7], [18], [11], [5], [11], [13], [18], [25], [20], [17], [21], [23], [22], [9], [18], [8], [7], [5], [6], [7], [14], [15]], [[20], [9], [21], [13], [19], [21], [5], [18], [22], [11], [8], [20], [21], [19], [6], [20], [10], [15], [19], [13], [20], [20], [5], [13], [11], [22], [12], [24], [5], [24], [20], [12]], [[19], [19], [14], [19], [9], [15], [23], [25], [5], [13], [15], [16], [25], [23], [21], [22], [14], [24], [16], [20], [16], [8], [24], [15], [14], [20], [10], [15], [14], [18], [7], [22]]];
Q = [[44], [54], [51], [40], [45], [46], [49], [54]];
